2514.89
25 25 25 25 25 25 25 25 25 0 25 25 0 68 25 76 76 92 25 25 68 68 68 25 0 25 0 25 25 68 0 76 25 92 92 25 68 68 68 92 92 0 25 25 25 92 76 0 25 25 0 0 68 76 0 68 25 68 0 0 25 25 68 25 25 0 0 25 25 25 25 25 25 25 25 25 0 92 0 25 25 92 92 0 25 92 25 25 68 25 68 25 68 25 25 25 68 92 68 25 
